
Gurobi 10.0.0 (win64) logging started Thu Dec  7 17:00:11 2023

Set parameter LogFile to value "C:\Users\ealvarezq\Documents\GitHub\Comillas\Models\JointResearch\05. Models\06.Benchmarking\B.Operation_cost\RTS24_mod1/openStarNet_RTS24_mod1.log"
Set parameter Method to value 2
Set parameter MIPFocus to value 1
Set parameter Presolve to value 2
Set parameter RINS to value 100
Set parameter MIPGap to value 0.01
Set parameter Threads to value 9
Set parameter TimeLimit to value 259200
Set parameter IterationLimit to value 760000000
Gurobi Optimizer version 10.0.0 build v10.0.0rc2 (win64)

CPU model: Intel(R) Core(TM) i7-8700 CPU @ 3.20GHz, instruction set [SSE2|AVX|AVX2]
Thread count: 6 physical cores, 12 logical processors, using up to 9 threads

Optimize a model with 2367460 rows, 1909370 columns and 5887067 nonzeros
Model fingerprint: 0xef86a787
Coefficient statistics:
  Matrix range     [8e-05, 3e+02]
  Objective range  [1e+00, 1e+00]
  Bounds range     [3e-05, 3e+00]
  RHS range        [3e-05, 3e+00]
Presolve removed 1861207 rows and 985641 columns
Presolve time: 3.62s
Presolved: 506253 rows, 923729 columns, 2138411 nonzeros

Ordering time: 0.10s

Barrier statistics:
 AA' NZ     : 1.164e+06
 Factor NZ  : 4.671e+06 (roughly 500 MB of memory)
 Factor Ops : 6.203e+07 (less than 1 second per iteration)
 Threads    : 9

                  Objective                Residual
Iter       Primal          Dual         Primal    Dual     Compl     Time
   0   4.07959752e+06 -4.22715501e+06  9.47e+01 2.80e+00  1.17e+03     8s
   1   2.34104126e+05 -3.68674217e+06  4.69e+00 7.11e-14  8.90e+01     8s
   2   6.06742271e+04 -1.10348056e+06  9.85e-01 1.17e-13  1.79e+01     8s
   3   1.60103786e+04 -2.28463837e+05  5.31e-02 7.11e-14  2.58e+00     9s
   4   5.42819247e+03 -3.65498259e+04  5.87e-03 1.07e-13  4.18e-01     9s
   5   1.10200456e+03 -8.06366353e+03  6.58e-04 3.55e-14  9.06e-02     9s
   6   3.81976276e+02 -1.85641730e+03  9.56e-07 2.69e-14  2.21e-02     9s
   7   2.93428582e+02 -6.23726931e+02  3.06e-07 2.60e-14  9.06e-03     9s
   8   2.30933711e+02 -1.97695729e+02  1.67e-07 2.09e-14  4.23e-03    10s
   9   1.63878097e+02 -2.56387469e+01  6.77e-08 1.86e-14  1.87e-03    10s
  10   1.29047543e+02  8.22059118e+01  2.40e-08 2.38e-14  4.63e-04    10s
  11   1.16304523e+02  1.00323413e+02  9.96e-09 2.45e-14  1.58e-04    11s
  12   1.11568406e+02  1.03878459e+02  5.08e-09 2.02e-14  7.59e-05    11s
  13   1.09190633e+02  1.05424619e+02  2.65e-09 2.02e-14  3.72e-05    11s
  14   1.07791427e+02  1.05946299e+02  1.24e-09 1.86e-14  1.82e-05    12s
  15   1.07038226e+02  1.06265912e+02  4.86e-10 1.76e-14  7.63e-06    12s
  16   1.06731393e+02  1.06443793e+02  2.00e-10 2.09e-14  2.84e-06    12s
  17   1.06630756e+02  1.06475945e+02  1.20e-10 1.99e-14  1.53e-06    12s
  18   1.06541727e+02  1.06510912e+02  3.16e-11 2.27e-14  3.04e-07    13s
  19   1.06518299e+02  1.06516831e+02  2.51e-10 2.27e-14  1.45e-08    13s
  20   1.06517578e+02  1.06517474e+02  1.19e-09 2.20e-14  1.03e-09    14s
  21   1.06517544e+02  1.06517539e+02  7.63e-10 2.25e-14  5.12e-11    14s
  22   1.06517540e+02  1.06517540e+02  3.76e-09 2.09e-14  1.22e-14    14s

Barrier solved model in 22 iterations and 14.28 seconds (9.93 work units)
Optimal objective 1.06517540e+02

Crossover log...

  110710 DPushes remaining with DInf 0.0000000e+00                17s
       0 DPushes remaining with DInf 0.0000000e+00                20s

   32859 PPushes remaining with PInf 0.0000000e+00                20s
    9024 PPushes remaining with PInf 0.0000000e+00                26s
       0 PPushes remaining with PInf 0.0000000e+00                30s

  Push phase complete: Pinf 0.0000000e+00, Dinf 3.7370609e-12     30s

Iteration    Objective       Primal Inf.    Dual Inf.      Time
   32865    1.0651754e+02   0.000000e+00   0.000000e+00     34s

Use crossover to convert LP symmetric solution to basic solution...
Crossover log...

       2 DPushes remaining with DInf 0.0000000e+00                35s
       0 DPushes remaining with DInf 0.0000000e+00                36s

   25223 PPushes remaining with PInf 0.0000000e+00                36s
    1743 PPushes remaining with PInf 0.0000000e+00                41s
       0 PPushes remaining with PInf 0.0000000e+00                42s

  Push phase complete: Pinf 0.0000000e+00, Dinf 2.0242217e-12     42s

Iteration    Objective       Primal Inf.    Dual Inf.      Time
   58093    1.0651754e+02   0.000000e+00   0.000000e+00     50s

Solved in 58093 iterations and 49.68 seconds (36.73 work units)
Optimal objective  1.065175404e+02
